100 100 100
50
29 7 73
48 79 5
36 49 41
7 95 78
90 39 81
85 30 84
55 48 41
68 72 84
93 4 25
7 30 20
62 69 42
83 89 83
26 4 19
71 58 43
89 96 1
65 36 61
86 54 53
32 71 33
69 85 55
43 12 26
71 42 89
61 61 37
74 12 69
9 46 42
29 50 14
40 69 8
4 1 64
85 3 55
79 91 43
52 100 16
84 48 3
94 51 70
32 10 93
87 72 12
25 36 30
32 61 90
10 9 69
51 66 32
88 41 53
29 67 100
22 5 60
3 25 51
88 51 25
92 45 82
66 90 60
23 69 50
23 23 43
30 31 8
91 34 32
3 45 32
